c colouring generated by benchmark framework
p edge 704 30226
v 1 0
v 2 0
v 3 0
v 4 0
v 5 3
v 6 5
v 7 5
v 8 4
v 9 3
v 10 0
v 11 3
v 12 2
v 13 1
v 14 1
v 15 4
v 16 4
v 17 6
v 18 2
v 19 0
v 20 0
v 21 1
v 22 0
v 23 0
v 24 0
v 25 8
v 26 4
v 27 5
v 28 5
v 29 8
v 30 5
v 31 1
v 32 3
v 33 0
v 34 0
v 35 4
v 36 3
v 37 3
v 38 0
v 39 0
v 40 0
v 41 8
v 42 3
v 43 6
v 44 6
v 45 6
v 46 1
v 47 5
v 48 0
v 49 4
v 50 6
v 51 0
v 52 5
v 53 1
v 54 3
v 55 0
v 56 5
v 57 2
v 58 5
v 59 6
v 60 8
v 61 3
v 62 0
v 63 1
v 64 4
v 65 2
v 66 3
v 67 0
v 68 0
v 69 6
v 70 2
v 71 5
v 72 4
v 73 2
v 74 2
v 75 5
v 76 1
v 77 6
v 78 0
v 79 0
v 80 3
v 81 0
v 82 4
v 83 0
v 84 4
v 85 0
v 86 2
v 87 4
v 88 8
v 89 8
v 90 4
v 91 3
v 92 0
v 93 4
v 94 0
v 95 4
v 96 0
v 97 1
v 98 1
v 99 2
v 100 2
v 101 5
v 102 2
v 103 8
v 104 6
v 105 2
v 106 8
v 107 0
v 108 2
v 109 3
v 110 2
v 111 3
v 112 4
v 113 8
v 114 0
v 115 3
v 116 3
v 117 6
v 118 4
v 119 6
v 120 0
v 121 0
v 122 3
v 123 2
v 124 2
v 125 1
v 126 0
v 127 1
v 128 3
v 129 2
v 130 5
v 131 1
v 132 0
v 133 2
v 134 0
v 135 0
v 136 5
v 137 0
v 138 0
v 139 0
v 140 0
v 141 6
v 142 0
v 143 3
v 144 0
v 145 5
v 146 4
v 147 1
v 148 3
v 149 0
v 150 4
v 151 1
v 152 1
v 153 2
v 154 1
v 155 2
v 156 4
v 157 3
v 158 2
v 159 1
v 160 2
v 161 8
v 162 0
v 163 2
v 164 2
v 165 0
v 166 4
v 167 0
v 168 1
v 169 2
v 170 0
v 171 2
v 172 1
v 173 0
v 174 5
v 175 4
v 176 4
v 177 6
v 178 0
v 179 0
v 180 6
v 181 2
v 182 0
v 183 3
v 184 8
v 185 3
v 186 0
v 187 8
v 188 6
v 189 8
v 190 0
v 191 0
v 192 3
v 193 0
v 194 6
v 195 4
v 196 0
v 197 5
v 198 5
v 199 0
v 200 1
v 201 4
v 202 0
v 203 4
v 204 0
v 205 6
v 206 5
v 207 0
v 208 1
v 209 5
v 210 1
v 211 8
v 212 3
v 213 8
v 214 8
v 215 0
v 216 8
v 217 6
v 218 1
v 219 0
v 220 0
v 221 8
v 222 1
v 223 2
v 224 0
v 225 2
v 226 5
v 227 2
v 228 5
v 229 1
v 230 5
v 231 0
v 232 0
v 233 0
v 234 3
v 235 3
v 236 3
v 237 0
v 238 3
v 239 2
v 240 1
v 241 0
v 242 0
v 243 5
v 244 1
v 245 0
v 246 6
v 247 0
v 248 1
v 249 2
v 250 1
v 251 1
v 252 0
v 253 0
v 254 4
v 255 1
v 256 5
v 257 2
v 258 6
v 259 1
v 260 8
v 261 0
v 262 0
v 263 3
v 264 2
v 265 8
v 266 0
v 267 3
v 268 0
v 269 3
v 270 0
v 271 3
v 272 8
v 273 8
v 274 4
v 275 6
v 276 3
v 277 1
v 278 8
v 279 0
v 280 0
v 281 2
v 282 1
v 283 8
v 284 1
v 285 1
v 286 0
v 287 0
v 288 4
v 289 3
v 290 2
v 291 6
v 292 8
v 293 6
v 294 0
v 295 6
v 296 3
v 297 0
v 298 7
v 299 7
v 300 7
v 301 7
v 302 7
v 303 7
v 304 7
v 305 7
v 306 7
v 307 7
v 308 7
v 309 7
v 310 7
v 311 7
v 312 7
v 313 7
v 314 7
v 315 7
v 316 7
v 317 7
v 318 7
v 319 7
v 320 7
v 321 7
v 322 7
v 323 7
v 324 7
v 325 7
v 326 7
v 327 7
v 328 7
v 329 7
v 330 7
v 331 7
v 332 7
v 333 7
v 334 7
v 335 7
v 336 7
v 337 7
v 338 7
v 339 7
v 340 7
v 341 7
v 342 7
v 343 7
v 344 7
v 345 7
v 346 7
v 347 7
v 348 7
v 349 7
v 350 7
v 351 7
v 352 7
v 353 7
v 354 7
v 355 7
v 356 7
v 357 7
v 358 7
v 359 7
v 360 7
v 361 7
v 362 7
v 363 7
v 364 7
v 365 7
v 366 7
v 367 7
v 368 7
v 369 7
v 370 7
v 371 7
v 372 7
v 373 7
v 374 7
v 375 7
v 376 7
v 377 7
v 378 7
v 379 7
v 380 7
v 381 7
v 382 7
v 383 7
v 384 7
v 385 7
v 386 7
v 387 7
v 388 7
v 389 7
v 390 7
v 391 7
v 392 7
v 393 7
v 394 7
v 395 7
v 396 7
v 397 7
v 398 7
v 399 7
v 400 7
v 401 7
v 402 7
v 403 7
v 404 7
v 405 7
v 406 7
v 407 7
v 408 7
v 409 7
v 410 7
v 411 7
v 412 7
v 413 7
v 414 7
v 415 7
v 416 7
v 417 5
v 418 7
v 419 7
v 420 7
v 421 7
v 422 7
v 423 7
v 424 7
v 425 7
v 426 7
v 427 7
v 428 7
v 429 7
v 430 7
v 431 7
v 432 7
v 433 7
v 434 7
v 435 7
v 436 7
v 437 7
v 438 7
v 439 7
v 440 7
v 441 7
v 442 7
v 443 7
v 444 7
v 445 7
v 446 7
v 447 7
v 448 7
v 449 7
v 450 7
v 451 7
v 452 7
v 453 7
v 454 7
v 455 7
v 456 7
v 457 7
v 458 7
v 459 7
v 460 7
v 461 7
v 462 7
v 463 7
v 464 7
v 465 7
v 466 7
v 467 7
v 468 7
v 469 7
v 470 7
v 471 7
v 472 7
v 473 7
v 474 7
v 475 7
v 476 7
v 477 7
v 478 7
v 479 7
v 480 7
v 481 7
v 482 7
v 483 7
v 484 7
v 485 7
v 486 7
v 487 7
v 488 7
v 489 7
v 490 7
v 491 7
v 492 7
v 493 7
v 494 7
v 495 7
v 496 7
v 497 7
v 498 7
v 499 7
v 500 7
v 501 7
v 502 7
v 503 7
v 504 7
v 505 7
v 506 7
v 507 7
v 508 7
v 509 7
v 510 7
v 511 7
v 512 7
v 513 7
v 514 7
v 515 7
v 516 7
v 517 7
v 518 7
v 519 7
v 520 7
v 521 7
v 522 7
v 523 7
v 524 7
v 525 7
v 526 7
v 527 7
v 528 7
v 529 7
v 530 7
v 531 7
v 532 7
v 533 7
v 534 7
v 535 7
v 536 7
v 537 7
v 538 7
v 539 7
v 540 7
v 541 7
v 542 7
v 543 7
v 544 5
v 545 7
v 546 7
v 547 7
v 548 7
v 549 7
v 550 7
v 551 7
v 552 7
v 553 7
v 554 7
v 555 7
v 556 7
v 557 7
v 558 7
v 559 7
v 560 7
v 561 7
v 562 7
v 563 7
v 564 7
v 565 7
v 566 7
v 567 7
v 568 7
v 569 7
v 570 7
v 571 7
v 572 7
v 573 7
v 574 7
v 575 7
v 576 7
v 577 7
v 578 7
v 579 7
v 580 7
v 581 7
v 582 7
v 583 7
v 584 7
v 585 7
v 586 7
v 587 7
v 588 7
v 589 7
v 590 7
v 591 7
v 592 7
v 593 7
v 594 7
v 595 7
v 596 7
v 597 7
v 598 7
v 599 7
v 600 7
v 601 7
v 602 7
v 603 7
v 604 7
v 605 7
v 606 7
v 607 7
v 608 7
v 609 7
v 610 7
v 611 7
v 612 7
v 613 7
v 614 7
v 615 7
v 616 7
v 617 7
v 618 7
v 619 7
v 620 7
v 621 7
v 622 7
v 623 7
v 624 7
v 625 7
v 626 7
v 627 7
v 628 7
v 629 7
v 630 7
v 631 7
v 632 7
v 633 7
v 634 7
v 635 7
v 636 7
v 637 7
v 638 7
v 639 7
v 640 7
v 641 7
v 642 7
v 643 7
v 644 7
v 645 7
v 646 7
v 647 7
v 648 7
v 649 7
v 650 7
v 651 7
v 652 7
v 653 7
v 654 7
v 655 7
v 656 7
v 657 7
v 658 7
v 659 7
v 660 7
v 661 7
v 662 7
v 663 7
v 664 7
v 665 7
v 666 7
v 667 7
v 668 7
v 669 7
v 670 7
v 671 7
v 672 7
v 673 7
v 674 7
v 675 7
v 676 7
v 677 7
v 678 7
v 679 7
v 680 7
v 681 7
v 682 7
v 683 7
v 684 7
v 685 7
v 686 7
v 687 7
v 688 7
v 689 7
v 690 7
v 691 7
v 692 7
v 693 7
v 694 7
v 695 7
v 696 7
v 697 7
v 698 7
v 699 7
v 700 7
v 701 7
v 702 7
v 703 7
v 704 7
